(synth-fun eq1 ( (x Int) (y Int) (z Int)) Int ((Start Int (x y  3 z
             (+ Start D)
             (+ Start Start)
             (ite StartBool Start Start)))
(D Int (-x -y -3 -z))
 (StartBool Bool (           (not StartBool) (or StartBool)       (>= Start Start) (and StartBool StartBool) ))
))
